db/data/482141992494718433219785652894514349.z3.out
-------------------
2500.120046289
